Welcome to the CBC MILP Solver 
Version: 2.10.12 
Build Date: Aug 20 2024 

command line - /opt/homebrew/bin/cbc computational_data/real_data/lp/wine_trial_002.lp seconds 10.0 solve solu computational_data/real_data/solutions/wine_trial_002.sol (default strategy 1)
seconds was changed from 1e+100 to 10
Continuous objective value is 4.66667 - 0.00 seconds
Cgl0003I 0 fixed, 0 tightened bounds, 90 strengthened rows, 0 substitutions
Cgl0003I 0 fixed, 0 tightened bounds, 91 strengthened rows, 0 substitutions
Cgl0003I 0 fixed, 0 tightened bounds, 87 strengthened rows, 0 substitutions
Cgl0003I 0 fixed, 0 tightened bounds, 67 strengthened rows, 0 substitutions
Cgl0003I 0 fixed, 0 tightened bounds, 47 strengthened rows, 0 substitutions
Cgl0003I 0 fixed, 0 tightened bounds, 30 strengthened rows, 0 substitutions
Cgl0003I 0 fixed, 0 tightened bounds, 18 strengthened rows, 0 substitutions
Cgl0003I 0 fixed, 0 tightened bounds, 9 strengthened rows, 0 substitutions
Cgl0003I 0 fixed, 0 tightened bounds, 5 strengthened rows, 0 substitutions
Cgl0004I processed model has 76 rows, 30 columns (30 integer (30 of which binary)) and 539 elements
Cutoff increment increased from 1e-05 to 0.9999
Cbc0038I Initial state - 26 integers unsatisfied sum - 3.22642
Cbc0038I Pass   1: suminf.    3.22642 (26) obj. 5.22642 iterations 0
Cbc0038I Pass   2: suminf.    0.00000 (0) obj. 6 iterations 31
Cbc0038I Solution found of 6
Cbc0038I Before mini branch and bound, 4 integers at bound fixed and 0 continuous
Cbc0038I Mini branch and bound did not improve solution (0.01 seconds)
Cbc0038I After 0.01 seconds - Feasibility pump exiting with objective of 6 - took 0.00 seconds
Cbc0012I Integer solution of 6 found by feasibility pump after 0 iterations and 0 nodes (0.01 seconds)
Cbc0001I Search completed - best objective 6, took 0 iterations and 0 nodes (0.01 seconds)
Cbc0035I Maximum depth 0, 2 variables fixed on reduced cost
Cuts at root node changed objective from 5.22642 to 5.22642
Probing was tried 0 times and created 0 cuts of which 0 were active after adding rounds of cuts (0.000 seconds)
Gomory was tried 0 times and created 0 cuts of which 0 were active after adding rounds of cuts (0.000 seconds)
Knapsack was tried 0 times and created 0 cuts of which 0 were active after adding rounds of cuts (0.000 seconds)
Clique was tried 0 times and created 0 cuts of which 0 were active after adding rounds of cuts (0.000 seconds)
MixedIntegerRounding2 was tried 0 times and created 0 cuts of which 0 were active after adding rounds of cuts (0.000 seconds)
FlowCover was tried 0 times and created 0 cuts of which 0 were active after adding rounds of cuts (0.000 seconds)
TwoMirCuts was tried 0 times and created 0 cuts of which 0 were active after adding rounds of cuts (0.000 seconds)
ZeroHalf was tried 0 times and created 0 cuts of which 0 were active after adding rounds of cuts (0.000 seconds)

Result - Optimal solution found

Objective value:                6.00000000
Enumerated nodes:               0
Total iterations:               0
Time (CPU seconds):             0.01
Time (Wallclock seconds):       0.01

Total time (CPU seconds):       0.01   (Wallclock seconds):       0.01

